c Generated map
c Size: 9 * 9, weights in range: 1 to 10, walls: False, with ratio 0.0
c dim 5 of 8
c
p sp 81 144
c graph contains 81 nodes and 144 arcs
c
a 1 10 5
a 10 1 5
a 1 2 1
a 2 1 1
a 2 11 4
a 11 2 4
a 2 3 10
a 3 2 10
a 3 12 2
a 12 3 2
a 3 4 5
a 4 3 5
a 4 13 8
a 13 4 8
a 4 5 1
a 5 4 1
a 5 14 5
a 14 5 5
a 5 6 3
a 6 5 3
a 6 15 8
a 15 6 8
a 6 7 9
a 7 6 9
a 7 16 1
a 16 7 1
a 7 8 9
a 8 7 9
a 8 17 4
a 17 8 4
a 8 9 9
a 9 8 9
a 9 18 6
a 18 9 6
a 10 19 1
a 19 10 1
a 10 11 5
a 11 10 5
a 11 20 6
a 20 11 6
a 11 12 4
a 12 11 4
a 12 21 5
a 21 12 5
a 12 13 6
a 13 12 6
a 13 22 7
a 22 13 7
a 13 14 1
a 14 13 1
a 14 23 1
a 23 14 1
a 14 15 5
a 15 14 5
a 15 24 9
a 24 15 9
a 15 16 3
a 16 15 3
a 16 25 1
a 25 16 1
a 16 17 8
a 17 16 8
a 17 26 2
a 26 17 2
a 17 18 5
a 18 17 5
a 18 27 1
a 27 18 1
a 19 28 1
a 28 19 1
a 19 20 7
a 20 19 7
a 20 29 6
a 29 20 6
a 20 21 8
a 21 20 8
a 21 30 9
a 30 21 9
a 21 22 2
a 22 21 2
a 22 31 9
a 31 22 9
a 22 23 10
a 23 22 10
a 23 32 2
a 32 23 2
a 23 24 1
a 24 23 1
a 24 33 8
a 33 24 8
a 24 25 9
a 25 24 9
a 25 34 6
a 34 25 6
a 25 26 4
a 26 25 4
a 26 35 9
a 35 26 9
a 26 27 8
a 27 26 8
a 27 36 7
a 36 27 7
a 28 37 8
a 37 28 8
a 28 29 9
a 29 28 9
a 29 38 10
a 38 29 10
a 29 30 3
a 30 29 3
a 30 39 7
a 39 30 7
a 30 31 6
a 31 30 6
a 31 40 9
a 40 31 9
a 31 32 3
a 32 31 3
a 32 41 4
a 41 32 4
a 32 33 2
a 33 32 2
a 33 42 5
a 42 33 5
a 33 34 6
a 34 33 6
a 34 43 9
a 43 34 9
a 34 35 2
a 35 34 2
a 35 44 3
a 44 35 3
a 35 36 4
a 36 35 4
a 36 45 8
a 45 36 8
a 37 46 1
a 46 37 1
a 37 38 1
a 38 37 1
a 38 47 4
a 47 38 4
a 38 39 1
a 39 38 1
a 39 48 2
a 48 39 2
a 39 40 8
a 40 39 8
a 40 49 9
a 49 40 9
a 40 41 4
a 41 40 4
a 41 50 7
a 50 41 7
a 41 42 9
a 42 41 9
a 42 51 10
a 51 42 10
a 42 43 7
a 43 42 7
a 43 52 7
a 52 43 7
a 43 44 6
a 44 43 6
a 44 53 5
a 53 44 5
a 44 45 5
a 45 44 5
a 45 54 2
a 54 45 2
a 46 55 8
a 55 46 8
a 46 47 5
a 47 46 5
a 47 56 6
a 56 47 6
a 47 48 8
a 48 47 8
a 48 57 1
a 57 48 1
a 48 49 6
a 49 48 6
a 49 58 3
a 58 49 3
a 49 50 4
a 50 49 4
a 50 59 8
a 59 50 8
a 50 51 9
a 51 50 9
a 51 60 2
a 60 51 2
a 51 52 9
a 52 51 9
a 52 61 4
a 61 52 4
a 52 53 10
a 53 52 10
a 53 62 7
a 62 53 7
a 53 54 2
a 54 53 2
a 54 63 1
a 63 54 1
a 55 64 7
a 64 55 7
a 55 56 1
a 56 55 1
a 56 65 7
a 65 56 7
a 56 57 8
a 57 56 8
a 57 66 3
a 66 57 3
a 57 58 2
a 58 57 2
a 58 67 7
a 67 58 7
a 58 59 9
a 59 58 9
a 59 68 9
a 68 59 9
a 59 60 7
a 60 59 7
a 60 69 4
a 69 60 4
a 60 61 6
a 61 60 6
a 61 70 7
a 70 61 7
a 61 62 4
a 62 61 4
a 62 71 8
a 71 62 8
a 62 63 4
a 63 62 4
a 63 72 5
a 72 63 5
a 64 73 9
a 73 64 9
a 64 65 10
a 65 64 10
a 65 74 1
a 74 65 1
a 65 66 5
a 66 65 5
a 66 75 7
a 75 66 7
a 66 67 8
a 67 66 8
a 67 76 10
a 76 67 10
a 67 68 7
a 68 67 7
a 68 77 9
a 77 68 9
a 68 69 1
a 69 68 1
a 69 78 2
a 78 69 2
a 69 70 2
a 70 69 2
a 70 79 9
a 79 70 9
a 70 71 1
a 71 70 1
a 71 80 3
a 80 71 3
a 71 72 2
a 72 71 2
a 72 81 4
a 81 72 4
a 73 74 7
a 74 73 7
a 74 75 1
a 75 74 1
a 75 76 5
a 76 75 5
a 76 77 5
a 77 76 5
a 77 78 10
a 78 77 10
a 78 79 8
a 79 78 8
a 79 80 8
a 80 79 8
a 80 81 6
a 81 80 6
